Cost: 1496
0-2-3-15-7-6-35-0
0-33-29-28-27-13-36-21-22-23-24-25-26-30-34-0
0-4-5-8-9-10-11-14-17-18-16-38-1-0
Cost: 1496
0-2-3-15-7-6-35-0
0-4-5-8-9-10-11-14-17-18-16-38-1-0
0-33-29-28-27-13-36-21-22-23-24-25-26-30-34-0
Cost: 1496
0-2-3-15-7-6-35-0
0-33-29-28-27-13-36-21-22-23-24-25-26-30-34-0
0-4-5-8-9-10-11-14-17-18-16-38-1-0
Cost: 1496
0-2-3-15-7-6-35-0
0-33-29-28-27-13-36-21-22-23-24-25-26-30-34-0
0-4-5-8-9-10-11-14-17-18-16-38-1-0
Cost: 1496
0-2-3-15-7-6-35-0
0-33-29-28-27-13-36-21-22-23-24-25-26-30-34-0
0-4-5-8-9-10-11-14-17-18-16-38-1-0
Cost: 1496
0-2-3-15-5-7-6-0
0-4-8-9-10-11-14-17-18-16-38-1-0
0-35-33-29-28-27-20-13-36-22-23-24-25-26-30-34-0
Cost: 1496
0-2-4-8-9-10-11-14-17-18-16-38-1-0
0-33-29-28-27-20-13-36-22-23-24-25-26-30-34-0
0-3-15-5-7-6-35-0
Cost: 1496
0-2-3-15-7-6-35-0
0-4-5-8-9-10-11-14-17-18-16-38-1-0
0-33-29-28-27-13-36-21-22-23-24-25-26-30-34-0
Cost: 1496
0-2-3-15-7-6-35-0
0-4-5-8-9-10-11-14-17-18-16-38-1-0
0-33-29-28-27-13-36-21-22-23-24-25-26-30-34-0
Cost: 1496
0-2-3-15-7-6-35-0
0-4-5-8-9-10-11-14-17-18-16-38-1-0
0-33-29-28-27-13-36-21-22-23-24-25-26-30-34-0
Cost: 1496
0-2-3-15-7-6-35-0
0-4-5-8-9-10-11-14-17-18-16-38-1-0
0-33-29-28-27-13-36-21-22-23-24-25-26-30-34-0
Cost: 1496
0-33-29-28-27-20-13-36-22-23-24-25-26-30-34-0
0-2-3-15-7-6-35-0
0-4-5-8-9-10-11-14-17-18-16-38-1-0
Cost: 1496
0-2-3-15-5-7-6-0
0-35-33-29-28-27-13-36-21-22-23-24-25-26-30-34-0
0-4-8-9-10-11-14-17-18-16-38-1-0
Cost: 1496
0-33-29-28-27-20-13-36-22-23-24-25-26-30-34-0
0-2-3-15-7-6-35-0
0-4-5-8-9-10-11-14-17-18-16-38-1-0
Cost: 1496
0-2-3-15-7-6-35-0
0-4-5-8-9-10-11-14-17-18-16-38-1-0
0-33-29-28-27-13-36-21-22-23-24-25-26-30-34-0
Cost: 1496
0-33-29-28-27-20-13-36-22-23-24-25-26-30-34-0
0-2-3-15-7-6-35-0
0-4-5-8-9-10-11-14-17-18-16-38-1-0
Cost: 1496
0-33-29-28-27-20-13-36-22-23-24-25-26-30-34-0
0-2-3-15-7-6-35-0
0-4-5-8-9-10-11-14-17-18-16-38-1-0
Cost: 1496
0-4-5-8-9-10-11-14-17-18-16-38-1-0
0-2-3-15-7-6-35-0
0-33-29-28-27-20-13-36-22-23-24-25-26-30-34-0
Cost: 1496
0-33-29-28-27-20-13-36-22-23-24-25-26-30-34-0
0-2-3-15-7-6-35-0
0-4-5-8-9-10-11-14-17-18-16-38-1-0
Cost: 1496
0-33-29-28-27-20-13-36-22-23-24-25-26-30-34-0
0-2-3-15-7-6-35-0
0-4-5-8-9-10-11-14-17-18-16-38-1-0
Cost: 1496
0-35-33-29-28-27-20-13-36-22-23-24-25-26-30-34-0
0-2-4-8-9-10-11-14-17-18-16-38-1-0
0-3-15-5-7-6-0
Cost: 1496
0-2-3-15-7-6-35-0
0-4-5-8-9-10-11-14-17-18-16-38-1-0
0-33-29-28-27-20-13-36-22-23-24-25-26-30-34-0
Cost: 1496
0-2-3-15-7-6-35-0
0-4-5-8-9-10-11-14-17-18-16-38-1-0
0-33-29-28-27-20-13-36-22-23-24-25-26-30-34-0
Cost: 1496
0-33-29-28-27-13-36-21-22-23-24-25-26-30-34-0
0-4-8-9-10-11-14-17-18-16-38-1-0
0-2-3-15-5-7-6-35-0
Cost: 1496
0-33-29-28-27-13-36-21-22-23-24-25-26-30-34-0
0-4-8-9-10-11-14-17-18-16-38-1-0
0-2-3-15-5-7-6-35-0
Cost: 1496
0-2-4-8-9-10-11-14-17-18-16-38-1-0
0-33-29-28-27-13-36-21-22-23-24-25-26-30-34-0
0-3-15-5-7-6-35-0
Cost: 1496
0-33-29-28-27-13-36-21-22-23-24-25-26-30-34-0
0-4-8-9-10-11-14-17-18-16-38-1-0
0-2-3-15-5-7-6-35-0
Cost: 1496
0-35-33-29-28-27-20-13-36-22-23-24-25-26-30-34-0
0-2-4-8-9-10-11-14-17-18-16-38-1-0
0-3-15-5-7-6-0
Cost: 1496
0-2-3-15-7-6-35-0
0-4-5-8-9-10-11-14-17-18-16-38-1-0
0-33-29-28-27-20-13-36-22-23-24-25-26-30-34-0
Cost: 1496
0-2-3-15-7-6-35-0
0-4-5-8-9-10-11-14-17-18-16-38-1-0
0-33-29-28-27-20-13-36-22-23-24-25-26-30-34-0
Cost: 1496
0-2-3-15-7-6-0
0-35-33-29-28-27-20-13-36-22-23-24-25-26-30-34-0
0-4-5-8-9-10-11-14-17-18-16-38-1-0
Cost: 1496
0-3-15-5-7-6-35-0
0-33-29-28-27-20-13-36-22-23-24-25-26-30-34-0
0-2-4-8-9-10-11-14-17-18-16-38-1-0
Cost: 1496
0-2-4-8-9-10-11-14-17-18-16-38-1-0
0-3-15-5-7-6-35-0
0-33-29-28-27-20-13-36-22-23-24-25-26-30-34-0
Cost: 1496
0-2-4-8-9-10-11-14-17-18-16-38-1-0
0-3-15-5-7-6-0
0-35-33-29-28-27-13-36-21-22-23-24-25-26-30-34-0
Cost: 1496
0-35-33-29-28-27-13-36-21-22-23-24-25-26-30-34-0
0-3-15-5-7-6-0
0-2-4-8-9-10-11-14-17-18-16-38-1-0
